(declare-fun b1256 () (_ FloatingPoint 8 24))
(declare-fun b489 () (_ FloatingPoint 11 53))
(declare-fun b1452 () (_ FloatingPoint 8 24))
(declare-fun b414 () (_ FloatingPoint 11 53))
(declare-fun b842 () (_ FloatingPoint 8 24))
(declare-fun b1293 () (_ FloatingPoint 8 24))
(declare-fun b1323 () (_ FloatingPoint 8 24))
(declare-fun b338 () (_ FloatingPoint 11 53))
(declare-fun b470 () (_ FloatingPoint 11 53))
(declare-fun b1318 () (_ FloatingPoint 8 24))
(declare-fun b245 () (_ FloatingPoint 8 24))
(declare-fun b1477 () (_ FloatingPoint 8 24))
(declare-fun b622 () (_ FloatingPoint 11 53))
(declare-fun b1333 () (_ FloatingPoint 8 24))
(declare-fun b1417 () (_ FloatingPoint 8 24))
(declare-fun b603 () (_ FloatingPoint 11 53))
(declare-fun b1402 () (_ FloatingPoint 8 24))
(declare-fun b508 () (_ FloatingPoint 11 53))
(declare-fun b1298 () (_ FloatingPoint 8 24))
(declare-fun b527 () (_ FloatingPoint 11 53))
(declare-fun b1422 () (_ FloatingPoint 8 24))
(declare-fun b1427 () (_ FloatingPoint 8 24))
(declare-fun b1373 () (_ FloatingPoint 8 24))
(declare-fun b1378 () (_ FloatingPoint 8 24))
(declare-fun b1263 () (_ FloatingPoint 8 24))
(declare-fun b1387 () (_ FloatingPoint 8 24))
(declare-fun b273 () (_ FloatingPoint 11 53))
(declare-fun b1363 () (_ FloatingPoint 8 24))
(declare-fun b1283 () (_ FloatingPoint 8 24))
(declare-fun b716 () (_ FloatingPoint 11 53))
(declare-fun b584 () (_ FloatingPoint 11 53))
(declare-fun b697 () (_ FloatingPoint 11 53))
(declare-fun b1288 () (_ FloatingPoint 8 24))
(declare-fun b1268 () (_ FloatingPoint 8 24))
(declare-fun b300 () (_ FloatingPoint 11 53))
(declare-fun b395 () (_ FloatingPoint 11 53))
(declare-fun b432 () (_ FloatingPoint 11 53))
(declare-fun b1407 () (_ FloatingPoint 8 24))
(declare-fun b1502 () (_ FloatingPoint 8 24))
(declare-fun b1338 () (_ FloatingPoint 8 24))
(declare-fun b885 () (_ FloatingPoint 11 53))
(declare-fun b1353 () (_ FloatingPoint 8 24))
(declare-fun b1308 () (_ FloatingPoint 8 24))
(declare-fun b261 () (_ FloatingPoint 11 53))
(declare-fun b1313 () (_ FloatingPoint 8 24))
(declare-fun b1328 () (_ FloatingPoint 8 24))
(declare-fun b1482 () (_ FloatingPoint 8 24))
(declare-fun b1412 () (_ FloatingPoint 8 24))
(declare-fun b451 () (_ FloatingPoint 11 53))
(declare-fun b1442 () (_ FloatingPoint 8 24))
(declare-fun b1437 () (_ FloatingPoint 8 24))
(declare-fun b376 () (_ FloatingPoint 11 53))
(declare-fun b243 () (_ FloatingPoint 8 24))
(declare-fun b1487 () (_ FloatingPoint 8 24))
(declare-fun b1358 () (_ FloatingPoint 8 24))
(declare-fun b678 () (_ FloatingPoint 11 53))
(declare-fun b546 () (_ FloatingPoint 11 53))
(declare-fun b1497 () (_ FloatingPoint 8 24))
(declare-fun b640 () (_ FloatingPoint 11 53))
(declare-fun b1507 () (_ FloatingPoint 8 24))
(declare-fun b1467 () (_ FloatingPoint 8 24))
(declare-fun b1432 () (_ FloatingPoint 8 24))
(declare-fun b357 () (_ FloatingPoint 11 53))
(declare-fun b1273 () (_ FloatingPoint 8 24))
(declare-fun b1472 () (_ FloatingPoint 8 24))
(declare-fun b565 () (_ FloatingPoint 11 53))
(declare-fun b1457 () (_ FloatingPoint 8 24))
(declare-fun b1447 () (_ FloatingPoint 8 24))
(declare-fun b659 () (_ FloatingPoint 11 53))
(declare-fun b1492 () (_ FloatingPoint 8 24))
(declare-fun b1343 () (_ FloatingPoint 8 24))
(declare-fun b1303 () (_ FloatingPoint 8 24))
(declare-fun b1368 () (_ FloatingPoint 8 24))
(declare-fun b319 () (_ FloatingPoint 11 53))
(declare-fun b1278 () (_ FloatingPoint 8 24))
(declare-fun b1348 () (_ FloatingPoint 8 24))
(declare-fun b1462 () (_ FloatingPoint 8 24))
(declare-fun b1261 () (_ FloatingPoint 8 24))
(declare-fun b1392 () (_ FloatingPoint 8 24))
(declare-fun b1397 () (_ FloatingPoint 8 24))
(declare-fun b282 () (_ FloatingPoint 11 53))
(assert (let ((.def_680 ((_ to_fp 11 53) RNE b1387)))
(let ((.def_681 (fp.leq b273 .def_680)))
(let ((.def_682 (not .def_681)))
(let ((.def_10 (fp.mul RNE b243 b243)))
(let ((.def_11 (fp.neg .def_10)))
(let ((.def_12 (fp.mul RNE b243 .def_11)))
(let ((.def_13 ((_ to_fp 11 53) RNE .def_12)))
(let ((.def_15 (fp.div RNE .def_13 b261)))
(let ((.def_16 ((_ to_fp 8 24) RNE .def_15)))
(let ((.def_677 (fp.neg .def_16)))
(let ((.def_678 (= b1507 .def_677)))
(let ((.def_674 (fp.leq b245 .def_16)))
(let ((.def_675 (not .def_674)))
(let ((.def_20 (fp.mul RNE .def_11 .def_16)))
(let ((.def_21 ((_ to_fp 11 53) RNE .def_20)))
(let ((.def_23 (fp.div RNE .def_21 b282)))
(let ((.def_24 ((_ to_fp 8 24) RNE .def_23)))
(let ((.def_670 (fp.neg .def_24)))
(let ((.def_671 (= b1502 .def_670)))
(let ((.def_667 (fp.leq b245 .def_24)))
(let ((.def_668 (not .def_667)))
(let ((.def_28 (fp.mul RNE .def_11 .def_24)))
(let ((.def_29 ((_ to_fp 11 53) RNE .def_28)))
(let ((.def_31 (fp.div RNE .def_29 b300)))
(let ((.def_32 ((_ to_fp 8 24) RNE .def_31)))
(let ((.def_663 (fp.neg .def_32)))
(let ((.def_664 (= b1497 .def_663)))
(let ((.def_660 (fp.leq b245 .def_32)))
(let ((.def_661 (not .def_660)))
(let ((.def_36 (fp.mul RNE .def_11 .def_32)))
(let ((.def_37 ((_ to_fp 11 53) RNE .def_36)))
(let ((.def_39 (fp.div RNE .def_37 b319)))
(let ((.def_40 ((_ to_fp 8 24) RNE .def_39)))
(let ((.def_656 (fp.neg .def_40)))
(let ((.def_657 (= b1492 .def_656)))
(let ((.def_653 (fp.leq b245 .def_40)))
(let ((.def_654 (not .def_653)))
(let ((.def_44 (fp.mul RNE .def_11 .def_40)))
(let ((.def_45 ((_ to_fp 11 53) RNE .def_44)))
(let ((.def_47 (fp.div RNE .def_45 b338)))
(let ((.def_48 ((_ to_fp 8 24) RNE .def_47)))
(let ((.def_649 (fp.neg .def_48)))
(let ((.def_650 (= b1487 .def_649)))
(let ((.def_646 (fp.leq b245 .def_48)))
(let ((.def_647 (not .def_646)))
(let ((.def_52 (fp.mul RNE .def_11 .def_48)))
(let ((.def_53 ((_ to_fp 11 53) RNE .def_52)))
(let ((.def_55 (fp.div RNE .def_53 b357)))
(let ((.def_56 ((_ to_fp 8 24) RNE .def_55)))
(let ((.def_642 (fp.neg .def_56)))
(let ((.def_643 (= b1482 .def_642)))
(let ((.def_639 (fp.leq b245 .def_56)))
(let ((.def_640 (not .def_639)))
(let ((.def_60 (fp.mul RNE .def_11 .def_56)))
(let ((.def_61 ((_ to_fp 11 53) RNE .def_60)))
(let ((.def_63 (fp.div RNE .def_61 b376)))
(let ((.def_64 ((_ to_fp 8 24) RNE .def_63)))
(let ((.def_635 (fp.neg .def_64)))
(let ((.def_636 (= b1477 .def_635)))
(let ((.def_632 (fp.leq b245 .def_64)))
(let ((.def_633 (not .def_632)))
(let ((.def_68 (fp.mul RNE .def_11 .def_64)))
(let ((.def_69 ((_ to_fp 11 53) RNE .def_68)))
(let ((.def_71 (fp.div RNE .def_69 b395)))
(let ((.def_72 ((_ to_fp 8 24) RNE .def_71)))
(let ((.def_628 (fp.neg .def_72)))
(let ((.def_629 (= b1472 .def_628)))
(let ((.def_625 (fp.leq b245 .def_72)))
(let ((.def_626 (not .def_625)))
(let ((.def_76 (fp.mul RNE .def_11 .def_72)))
(let ((.def_77 ((_ to_fp 11 53) RNE .def_76)))
(let ((.def_79 (fp.div RNE .def_77 b414)))
(let ((.def_80 ((_ to_fp 8 24) RNE .def_79)))
(let ((.def_621 (fp.neg .def_80)))
(let ((.def_622 (= b1467 .def_621)))
(let ((.def_618 (fp.leq b245 .def_80)))
(let ((.def_619 (not .def_618)))
(let ((.def_84 (fp.mul RNE .def_11 .def_80)))
(let ((.def_85 ((_ to_fp 11 53) RNE .def_84)))
(let ((.def_87 (fp.div RNE .def_85 b432)))
(let ((.def_88 ((_ to_fp 8 24) RNE .def_87)))
(let ((.def_614 (fp.neg .def_88)))
(let ((.def_615 (= b1462 .def_614)))
(let ((.def_611 (fp.leq b245 .def_88)))
(let ((.def_612 (not .def_611)))
(let ((.def_92 (fp.mul RNE .def_11 .def_88)))
(let ((.def_93 ((_ to_fp 11 53) RNE .def_92)))
(let ((.def_95 (fp.div RNE .def_93 b451)))
(let ((.def_96 ((_ to_fp 8 24) RNE .def_95)))
(let ((.def_607 (fp.neg .def_96)))
(let ((.def_608 (= b1457 .def_607)))
(let ((.def_604 (fp.leq b245 .def_96)))
(let ((.def_605 (not .def_604)))
(let ((.def_100 (fp.mul RNE .def_11 .def_96)))
(let ((.def_101 ((_ to_fp 11 53) RNE .def_100)))
(let ((.def_103 (fp.div RNE .def_101 b470)))
(let ((.def_104 ((_ to_fp 8 24) RNE .def_103)))
(let ((.def_600 (fp.neg .def_104)))
(let ((.def_601 (= b1452 .def_600)))
(let ((.def_597 (fp.leq b245 .def_104)))
(let ((.def_598 (not .def_597)))
(let ((.def_108 (fp.mul RNE .def_11 .def_104)))
(let ((.def_109 ((_ to_fp 11 53) RNE .def_108)))
(let ((.def_111 (fp.div RNE .def_109 b489)))
(let ((.def_112 ((_ to_fp 8 24) RNE .def_111)))
(let ((.def_593 (fp.neg .def_112)))
(let ((.def_594 (= b1447 .def_593)))
(let ((.def_590 (fp.leq b245 .def_112)))
(let ((.def_591 (not .def_590)))
(let ((.def_116 (fp.mul RNE .def_11 .def_112)))
(let ((.def_117 ((_ to_fp 11 53) RNE .def_116)))
(let ((.def_119 (fp.div RNE .def_117 b508)))
(let ((.def_120 ((_ to_fp 8 24) RNE .def_119)))
(let ((.def_586 (fp.neg .def_120)))
(let ((.def_587 (= b1442 .def_586)))
(let ((.def_583 (fp.leq b245 .def_120)))
(let ((.def_584 (not .def_583)))
(let ((.def_124 (fp.mul RNE .def_11 .def_120)))
(let ((.def_125 ((_ to_fp 11 53) RNE .def_124)))
(let ((.def_127 (fp.div RNE .def_125 b527)))
(let ((.def_128 ((_ to_fp 8 24) RNE .def_127)))
(let ((.def_579 (fp.neg .def_128)))
(let ((.def_580 (= b1437 .def_579)))
(let ((.def_576 (fp.leq b245 .def_128)))
(let ((.def_577 (not .def_576)))
(let ((.def_132 (fp.mul RNE .def_11 .def_128)))
(let ((.def_133 ((_ to_fp 11 53) RNE .def_132)))
(let ((.def_135 (fp.div RNE .def_133 b546)))
(let ((.def_136 ((_ to_fp 8 24) RNE .def_135)))
(let ((.def_572 (fp.neg .def_136)))
(let ((.def_573 (= b1432 .def_572)))
(let ((.def_569 (fp.leq b245 .def_136)))
(let ((.def_570 (not .def_569)))
(let ((.def_140 (fp.mul RNE .def_11 .def_136)))
(let ((.def_141 ((_ to_fp 11 53) RNE .def_140)))
(let ((.def_143 (fp.div RNE .def_141 b565)))
(let ((.def_144 ((_ to_fp 8 24) RNE .def_143)))
(let ((.def_565 (fp.neg .def_144)))
(let ((.def_566 (= b1427 .def_565)))
(let ((.def_562 (fp.leq b245 .def_144)))
(let ((.def_563 (not .def_562)))
(let ((.def_148 (fp.mul RNE .def_11 .def_144)))
(let ((.def_149 ((_ to_fp 11 53) RNE .def_148)))
(let ((.def_151 (fp.div RNE .def_149 b584)))
(let ((.def_152 ((_ to_fp 8 24) RNE .def_151)))
(let ((.def_558 (fp.neg .def_152)))
(let ((.def_559 (= b1422 .def_558)))
(let ((.def_555 (fp.leq b245 .def_152)))
(let ((.def_556 (not .def_555)))
(let ((.def_156 (fp.mul RNE .def_11 .def_152)))
(let ((.def_157 ((_ to_fp 11 53) RNE .def_156)))
(let ((.def_159 (fp.div RNE .def_157 b603)))
(let ((.def_160 ((_ to_fp 8 24) RNE .def_159)))
(let ((.def_551 (fp.neg .def_160)))
(let ((.def_552 (= b1417 .def_551)))
(let ((.def_548 (fp.leq b245 .def_160)))
(let ((.def_549 (not .def_548)))
(let ((.def_164 (fp.mul RNE .def_11 .def_160)))
(let ((.def_165 ((_ to_fp 11 53) RNE .def_164)))
(let ((.def_167 (fp.div RNE .def_165 b622)))
(let ((.def_168 ((_ to_fp 8 24) RNE .def_167)))
(let ((.def_544 (fp.neg .def_168)))
(let ((.def_545 (= b1412 .def_544)))
(let ((.def_541 (fp.leq b245 .def_168)))
(let ((.def_542 (not .def_541)))
(let ((.def_172 (fp.mul RNE .def_11 .def_168)))
(let ((.def_173 ((_ to_fp 11 53) RNE .def_172)))
(let ((.def_175 (fp.div RNE .def_173 b640)))
(let ((.def_176 ((_ to_fp 8 24) RNE .def_175)))
(let ((.def_537 (fp.neg .def_176)))
(let ((.def_538 (= b1407 .def_537)))
(let ((.def_534 (fp.leq b245 .def_176)))
(let ((.def_535 (not .def_534)))
(let ((.def_180 (fp.mul RNE .def_11 .def_176)))
(let ((.def_181 ((_ to_fp 11 53) RNE .def_180)))
(let ((.def_183 (fp.div RNE .def_181 b659)))
(let ((.def_184 ((_ to_fp 8 24) RNE .def_183)))
(let ((.def_530 (fp.neg .def_184)))
(let ((.def_531 (= b1402 .def_530)))
(let ((.def_527 (fp.leq b245 .def_184)))
(let ((.def_528 (not .def_527)))
(let ((.def_188 (fp.mul RNE .def_11 .def_184)))
(let ((.def_189 ((_ to_fp 11 53) RNE .def_188)))
(let ((.def_191 (fp.div RNE .def_189 b678)))
(let ((.def_192 ((_ to_fp 8 24) RNE .def_191)))
(let ((.def_523 (fp.neg .def_192)))
(let ((.def_524 (= b1397 .def_523)))
(let ((.def_520 (fp.leq b245 .def_192)))
(let ((.def_521 (not .def_520)))
(let ((.def_196 (fp.mul RNE .def_11 .def_192)))
(let ((.def_197 ((_ to_fp 11 53) RNE .def_196)))
(let ((.def_199 (fp.div RNE .def_197 b697)))
(let ((.def_200 ((_ to_fp 8 24) RNE .def_199)))
(let ((.def_516 (fp.neg .def_200)))
(let ((.def_517 (= b1392 .def_516)))
(let ((.def_513 (fp.leq b245 .def_200)))
(let ((.def_514 (not .def_513)))
(let ((.def_204 (fp.mul RNE .def_11 .def_200)))
(let ((.def_205 ((_ to_fp 11 53) RNE .def_204)))
(let ((.def_207 (fp.div RNE .def_205 b716)))
(let ((.def_208 ((_ to_fp 8 24) RNE .def_207)))
(let ((.def_509 (fp.neg .def_208)))
(let ((.def_510 (= b1387 .def_509)))
(let ((.def_506 (fp.leq b245 .def_208)))
(let ((.def_507 (not .def_506)))
(let ((.def_282 (fp.add RNE b243 .def_16)))
(let ((.def_503 (= b1261 .def_282)))
(let ((.def_499 ((_ to_fp 11 53) RNE b1507)))
(let ((.def_500 (fp.leq b273 .def_499)))
(let ((.def_501 (not .def_500)))
(let ((.def_283 (fp.add RNE .def_24 .def_282)))
(let ((.def_496 (= b1378 .def_283)))
(let ((.def_492 ((_ to_fp 11 53) RNE b1502)))
(let ((.def_493 (fp.leq b273 .def_492)))
(let ((.def_494 (not .def_493)))
(let ((.def_284 (fp.add RNE .def_32 .def_283)))
(let ((.def_489 (= b1373 .def_284)))
(let ((.def_485 ((_ to_fp 11 53) RNE b1497)))
(let ((.def_486 (fp.leq b273 .def_485)))
(let ((.def_487 (not .def_486)))
(let ((.def_285 (fp.add RNE .def_40 .def_284)))
(let ((.def_482 (= b1368 .def_285)))
(let ((.def_478 ((_ to_fp 11 53) RNE b1492)))
(let ((.def_479 (fp.leq b273 .def_478)))
(let ((.def_480 (not .def_479)))
(let ((.def_286 (fp.add RNE .def_48 .def_285)))
(let ((.def_475 (= b1363 .def_286)))
(let ((.def_471 ((_ to_fp 11 53) RNE b1487)))
(let ((.def_472 (fp.leq b273 .def_471)))
(let ((.def_473 (not .def_472)))
(let ((.def_287 (fp.add RNE .def_56 .def_286)))
(let ((.def_468 (= b1358 .def_287)))
(let ((.def_464 ((_ to_fp 11 53) RNE b1482)))
(let ((.def_465 (fp.leq b273 .def_464)))
(let ((.def_466 (not .def_465)))
(let ((.def_288 (fp.add RNE .def_64 .def_287)))
(let ((.def_461 (= b1353 .def_288)))
(let ((.def_457 ((_ to_fp 11 53) RNE b1477)))
(let ((.def_458 (fp.leq b273 .def_457)))
(let ((.def_459 (not .def_458)))
(let ((.def_289 (fp.add RNE .def_72 .def_288)))
(let ((.def_454 (= b1348 .def_289)))
(let ((.def_450 ((_ to_fp 11 53) RNE b1472)))
(let ((.def_451 (fp.leq b273 .def_450)))
(let ((.def_452 (not .def_451)))
(let ((.def_290 (fp.add RNE .def_80 .def_289)))
(let ((.def_447 (= b1343 .def_290)))
(let ((.def_443 ((_ to_fp 11 53) RNE b1467)))
(let ((.def_444 (fp.leq b273 .def_443)))
(let ((.def_445 (not .def_444)))
(let ((.def_291 (fp.add RNE .def_88 .def_290)))
(let ((.def_440 (= b1338 .def_291)))
(let ((.def_436 ((_ to_fp 11 53) RNE b1462)))
(let ((.def_437 (fp.leq b273 .def_436)))
(let ((.def_438 (not .def_437)))
(let ((.def_292 (fp.add RNE .def_96 .def_291)))
(let ((.def_433 (= b1333 .def_292)))
(let ((.def_429 ((_ to_fp 11 53) RNE b1457)))
(let ((.def_430 (fp.leq b273 .def_429)))
(let ((.def_431 (not .def_430)))
(let ((.def_293 (fp.add RNE .def_104 .def_292)))
(let ((.def_426 (= b1328 .def_293)))
(let ((.def_422 ((_ to_fp 11 53) RNE b1452)))
(let ((.def_423 (fp.leq b273 .def_422)))
(let ((.def_424 (not .def_423)))
(let ((.def_294 (fp.add RNE .def_112 .def_293)))
(let ((.def_419 (= b1323 .def_294)))
(let ((.def_415 ((_ to_fp 11 53) RNE b1447)))
(let ((.def_416 (fp.leq b273 .def_415)))
(let ((.def_417 (not .def_416)))
(let ((.def_295 (fp.add RNE .def_120 .def_294)))
(let ((.def_412 (= b1318 .def_295)))
(let ((.def_408 ((_ to_fp 11 53) RNE b1442)))
(let ((.def_409 (fp.leq b273 .def_408)))
(let ((.def_410 (not .def_409)))
(let ((.def_296 (fp.add RNE .def_128 .def_295)))
(let ((.def_405 (= b1313 .def_296)))
(let ((.def_401 ((_ to_fp 11 53) RNE b1437)))
(let ((.def_402 (fp.leq b273 .def_401)))
(let ((.def_403 (not .def_402)))
(let ((.def_297 (fp.add RNE .def_136 .def_296)))
(let ((.def_398 (= b1308 .def_297)))
(let ((.def_394 ((_ to_fp 11 53) RNE b1432)))
(let ((.def_395 (fp.leq b273 .def_394)))
(let ((.def_396 (not .def_395)))
(let ((.def_298 (fp.add RNE .def_144 .def_297)))
(let ((.def_391 (= b1303 .def_298)))
(let ((.def_387 ((_ to_fp 11 53) RNE b1427)))
(let ((.def_388 (fp.leq b273 .def_387)))
(let ((.def_389 (not .def_388)))
(let ((.def_299 (fp.add RNE .def_152 .def_298)))
(let ((.def_384 (= b1298 .def_299)))
(let ((.def_380 ((_ to_fp 11 53) RNE b1422)))
(let ((.def_381 (fp.leq b273 .def_380)))
(let ((.def_382 (not .def_381)))
(let ((.def_300 (fp.add RNE .def_160 .def_299)))
(let ((.def_377 (= b1293 .def_300)))
(let ((.def_373 ((_ to_fp 11 53) RNE b1417)))
(let ((.def_374 (fp.leq b273 .def_373)))
(let ((.def_375 (not .def_374)))
(let ((.def_301 (fp.add RNE .def_168 .def_300)))
(let ((.def_370 (= b1288 .def_301)))
(let ((.def_366 ((_ to_fp 11 53) RNE b1412)))
(let ((.def_367 (fp.leq b273 .def_366)))
(let ((.def_368 (not .def_367)))
(let ((.def_302 (fp.add RNE .def_176 .def_301)))
(let ((.def_363 (= b1283 .def_302)))
(let ((.def_359 ((_ to_fp 11 53) RNE b1407)))
(let ((.def_360 (fp.leq b273 .def_359)))
(let ((.def_361 (not .def_360)))
(let ((.def_303 (fp.add RNE .def_184 .def_302)))
(let ((.def_356 (= b1278 .def_303)))
(let ((.def_352 ((_ to_fp 11 53) RNE b1402)))
(let ((.def_353 (fp.leq b273 .def_352)))
(let ((.def_354 (not .def_353)))
(let ((.def_304 (fp.add RNE .def_192 .def_303)))
(let ((.def_349 (= b1273 .def_304)))
(let ((.def_345 ((_ to_fp 11 53) RNE b1397)))
(let ((.def_346 (fp.leq b273 .def_345)))
(let ((.def_347 (not .def_346)))
(let ((.def_340 ((_ to_fp 11 53) RNE b1256)))
(let ((.def_342 (fp.leq .def_340 b885)))
(let ((.def_337 (fp.leq b1263 b842)))
(let ((.def_338 (not .def_337)))
(let ((.def_305 (fp.add RNE .def_200 .def_304)))
(let ((.def_334 (= b1268 .def_305)))
(let ((.def_329 ((_ to_fp 11 53) RNE b1392)))
(let ((.def_331 (fp.leq b273 .def_329)))
(let ((.def_332 (not .def_331)))
(let ((.def_325 (fp.neg b1261)))
(let ((.def_326 (= b1263 .def_325)))
(let ((.def_322 (fp.leq b245 b1261)))
(let ((.def_323 (not .def_322)))
(let ((.def_318 (fp.neg b243)))
(let ((.def_319 (= b1256 .def_318)))
(let ((.def_316 (fp.leq b245 b243)))
(let ((.def_317 (not .def_316)))
(let ((.def_320 (and .def_317 .def_319)))
(let ((.def_313 (= b243 b1256)))
(let ((.def_314 (not .def_313)))
(let ((.def_321 (and .def_314 .def_320)))
(let ((.def_324 (and .def_321 .def_323)))
(let ((.def_327 (and .def_324 .def_326)))
(let ((.def_310 (= b1261 b1263)))
(let ((.def_311 (not .def_310)))
(let ((.def_328 (and .def_311 .def_327)))
(let ((.def_333 (and .def_328 .def_332)))
(let ((.def_335 (and .def_333 .def_334)))
(let ((.def_339 (and .def_335 .def_338)))
(let ((.def_343 (and .def_339 .def_342)))
(let ((.def_306 (fp.add RNE .def_208 .def_305)))
(let ((.def_307 (= b1268 .def_306)))
(let ((.def_308 (not .def_307)))
(let ((.def_344 (and .def_308 .def_343)))
(let ((.def_348 (and .def_344 .def_347)))
(let ((.def_350 (and .def_348 .def_349)))
(let ((.def_280 (= b1273 b1268)))
(let ((.def_281 (not .def_280)))
(let ((.def_351 (and .def_281 .def_350)))
(let ((.def_355 (and .def_351 .def_354)))
(let ((.def_357 (and .def_355 .def_356)))
(let ((.def_277 (= b1278 b1273)))
(let ((.def_278 (not .def_277)))
(let ((.def_358 (and .def_278 .def_357)))
(let ((.def_362 (and .def_358 .def_361)))
(let ((.def_364 (and .def_362 .def_363)))
(let ((.def_274 (= b1283 b1278)))
(let ((.def_275 (not .def_274)))
(let ((.def_365 (and .def_275 .def_364)))
(let ((.def_369 (and .def_365 .def_368)))
(let ((.def_371 (and .def_369 .def_370)))
(let ((.def_271 (= b1288 b1283)))
(let ((.def_272 (not .def_271)))
(let ((.def_372 (and .def_272 .def_371)))
(let ((.def_376 (and .def_372 .def_375)))
(let ((.def_378 (and .def_376 .def_377)))
(let ((.def_268 (= b1293 b1288)))
(let ((.def_269 (not .def_268)))
(let ((.def_379 (and .def_269 .def_378)))
(let ((.def_383 (and .def_379 .def_382)))
(let ((.def_385 (and .def_383 .def_384)))
(let ((.def_265 (= b1298 b1293)))
(let ((.def_266 (not .def_265)))
(let ((.def_386 (and .def_266 .def_385)))
(let ((.def_390 (and .def_386 .def_389)))
(let ((.def_392 (and .def_390 .def_391)))
(let ((.def_262 (= b1303 b1298)))
(let ((.def_263 (not .def_262)))
(let ((.def_393 (and .def_263 .def_392)))
(let ((.def_397 (and .def_393 .def_396)))
(let ((.def_399 (and .def_397 .def_398)))
(let ((.def_259 (= b1308 b1303)))
(let ((.def_260 (not .def_259)))
(let ((.def_400 (and .def_260 .def_399)))
(let ((.def_404 (and .def_400 .def_403)))
(let ((.def_406 (and .def_404 .def_405)))
(let ((.def_256 (= b1313 b1308)))
(let ((.def_257 (not .def_256)))
(let ((.def_407 (and .def_257 .def_406)))
(let ((.def_411 (and .def_407 .def_410)))
(let ((.def_413 (and .def_411 .def_412)))
(let ((.def_253 (= b1318 b1313)))
(let ((.def_254 (not .def_253)))
(let ((.def_414 (and .def_254 .def_413)))
(let ((.def_418 (and .def_414 .def_417)))
(let ((.def_420 (and .def_418 .def_419)))
(let ((.def_250 (= b1323 b1318)))
(let ((.def_251 (not .def_250)))
(let ((.def_421 (and .def_251 .def_420)))
(let ((.def_425 (and .def_421 .def_424)))
(let ((.def_427 (and .def_425 .def_426)))
(let ((.def_247 (= b1328 b1323)))
(let ((.def_248 (not .def_247)))
(let ((.def_428 (and .def_248 .def_427)))
(let ((.def_432 (and .def_428 .def_431)))
(let ((.def_434 (and .def_432 .def_433)))
(let ((.def_244 (= b1333 b1328)))
(let ((.def_245 (not .def_244)))
(let ((.def_435 (and .def_245 .def_434)))
(let ((.def_439 (and .def_435 .def_438)))
(let ((.def_441 (and .def_439 .def_440)))
(let ((.def_241 (= b1338 b1333)))
(let ((.def_242 (not .def_241)))
(let ((.def_442 (and .def_242 .def_441)))
(let ((.def_446 (and .def_442 .def_445)))
(let ((.def_448 (and .def_446 .def_447)))
(let ((.def_238 (= b1343 b1338)))
(let ((.def_239 (not .def_238)))
(let ((.def_449 (and .def_239 .def_448)))
(let ((.def_453 (and .def_449 .def_452)))
(let ((.def_455 (and .def_453 .def_454)))
(let ((.def_235 (= b1348 b1343)))
(let ((.def_236 (not .def_235)))
(let ((.def_456 (and .def_236 .def_455)))
(let ((.def_460 (and .def_456 .def_459)))
(let ((.def_462 (and .def_460 .def_461)))
(let ((.def_232 (= b1353 b1348)))
(let ((.def_233 (not .def_232)))
(let ((.def_463 (and .def_233 .def_462)))
(let ((.def_467 (and .def_463 .def_466)))
(let ((.def_469 (and .def_467 .def_468)))
(let ((.def_229 (= b1358 b1353)))
(let ((.def_230 (not .def_229)))
(let ((.def_470 (and .def_230 .def_469)))
(let ((.def_474 (and .def_470 .def_473)))
(let ((.def_476 (and .def_474 .def_475)))
(let ((.def_226 (= b1363 b1358)))
(let ((.def_227 (not .def_226)))
(let ((.def_477 (and .def_227 .def_476)))
(let ((.def_481 (and .def_477 .def_480)))
(let ((.def_483 (and .def_481 .def_482)))
(let ((.def_223 (= b1368 b1363)))
(let ((.def_224 (not .def_223)))
(let ((.def_484 (and .def_224 .def_483)))
(let ((.def_488 (and .def_484 .def_487)))
(let ((.def_490 (and .def_488 .def_489)))
(let ((.def_220 (= b1373 b1368)))
(let ((.def_221 (not .def_220)))
(let ((.def_491 (and .def_221 .def_490)))
(let ((.def_495 (and .def_491 .def_494)))
(let ((.def_497 (and .def_495 .def_496)))
(let ((.def_217 (= b1378 b1373)))
(let ((.def_218 (not .def_217)))
(let ((.def_498 (and .def_218 .def_497)))
(let ((.def_502 (and .def_498 .def_501)))
(let ((.def_504 (and .def_502 .def_503)))
(let ((.def_214 (= b1261 b1378)))
(let ((.def_215 (not .def_214)))
(let ((.def_505 (and .def_215 .def_504)))
(let ((.def_508 (and .def_505 .def_507)))
(let ((.def_511 (and .def_508 .def_510)))
(let ((.def_210 (= .def_208 b1387)))
(let ((.def_211 (not .def_210)))
(let ((.def_512 (and .def_211 .def_511)))
(let ((.def_515 (and .def_512 .def_514)))
(let ((.def_518 (and .def_515 .def_517)))
(let ((.def_202 (= .def_200 b1392)))
(let ((.def_203 (not .def_202)))
(let ((.def_519 (and .def_203 .def_518)))
(let ((.def_522 (and .def_519 .def_521)))
(let ((.def_525 (and .def_522 .def_524)))
(let ((.def_194 (= .def_192 b1397)))
(let ((.def_195 (not .def_194)))
(let ((.def_526 (and .def_195 .def_525)))
(let ((.def_529 (and .def_526 .def_528)))
(let ((.def_532 (and .def_529 .def_531)))
(let ((.def_186 (= .def_184 b1402)))
(let ((.def_187 (not .def_186)))
(let ((.def_533 (and .def_187 .def_532)))
(let ((.def_536 (and .def_533 .def_535)))
(let ((.def_539 (and .def_536 .def_538)))
(let ((.def_178 (= .def_176 b1407)))
(let ((.def_179 (not .def_178)))
(let ((.def_540 (and .def_179 .def_539)))
(let ((.def_543 (and .def_540 .def_542)))
(let ((.def_546 (and .def_543 .def_545)))
(let ((.def_170 (= .def_168 b1412)))
(let ((.def_171 (not .def_170)))
(let ((.def_547 (and .def_171 .def_546)))
(let ((.def_550 (and .def_547 .def_549)))
(let ((.def_553 (and .def_550 .def_552)))
(let ((.def_162 (= .def_160 b1417)))
(let ((.def_163 (not .def_162)))
(let ((.def_554 (and .def_163 .def_553)))
(let ((.def_557 (and .def_554 .def_556)))
(let ((.def_560 (and .def_557 .def_559)))
(let ((.def_154 (= .def_152 b1422)))
(let ((.def_155 (not .def_154)))
(let ((.def_561 (and .def_155 .def_560)))
(let ((.def_564 (and .def_561 .def_563)))
(let ((.def_567 (and .def_564 .def_566)))
(let ((.def_146 (= .def_144 b1427)))
(let ((.def_147 (not .def_146)))
(let ((.def_568 (and .def_147 .def_567)))
(let ((.def_571 (and .def_568 .def_570)))
(let ((.def_574 (and .def_571 .def_573)))
(let ((.def_138 (= .def_136 b1432)))
(let ((.def_139 (not .def_138)))
(let ((.def_575 (and .def_139 .def_574)))
(let ((.def_578 (and .def_575 .def_577)))
(let ((.def_581 (and .def_578 .def_580)))
(let ((.def_130 (= .def_128 b1437)))
(let ((.def_131 (not .def_130)))
(let ((.def_582 (and .def_131 .def_581)))
(let ((.def_585 (and .def_582 .def_584)))
(let ((.def_588 (and .def_585 .def_587)))
(let ((.def_122 (= .def_120 b1442)))
(let ((.def_123 (not .def_122)))
(let ((.def_589 (and .def_123 .def_588)))
(let ((.def_592 (and .def_589 .def_591)))
(let ((.def_595 (and .def_592 .def_594)))
(let ((.def_114 (= .def_112 b1447)))
(let ((.def_115 (not .def_114)))
(let ((.def_596 (and .def_115 .def_595)))
(let ((.def_599 (and .def_596 .def_598)))
(let ((.def_602 (and .def_599 .def_601)))
(let ((.def_106 (= .def_104 b1452)))
(let ((.def_107 (not .def_106)))
(let ((.def_603 (and .def_107 .def_602)))
(let ((.def_606 (and .def_603 .def_605)))
(let ((.def_609 (and .def_606 .def_608)))
(let ((.def_98 (= .def_96 b1457)))
(let ((.def_99 (not .def_98)))
(let ((.def_610 (and .def_99 .def_609)))
(let ((.def_613 (and .def_610 .def_612)))
(let ((.def_616 (and .def_613 .def_615)))
(let ((.def_90 (= .def_88 b1462)))
(let ((.def_91 (not .def_90)))
(let ((.def_617 (and .def_91 .def_616)))
(let ((.def_620 (and .def_617 .def_619)))
(let ((.def_623 (and .def_620 .def_622)))
(let ((.def_82 (= .def_80 b1467)))
(let ((.def_83 (not .def_82)))
(let ((.def_624 (and .def_83 .def_623)))
(let ((.def_627 (and .def_624 .def_626)))
(let ((.def_630 (and .def_627 .def_629)))
(let ((.def_74 (= .def_72 b1472)))
(let ((.def_75 (not .def_74)))
(let ((.def_631 (and .def_75 .def_630)))
(let ((.def_634 (and .def_631 .def_633)))
(let ((.def_637 (and .def_634 .def_636)))
(let ((.def_66 (= .def_64 b1477)))
(let ((.def_67 (not .def_66)))
(let ((.def_638 (and .def_67 .def_637)))
(let ((.def_641 (and .def_638 .def_640)))
(let ((.def_644 (and .def_641 .def_643)))
(let ((.def_58 (= .def_56 b1482)))
(let ((.def_59 (not .def_58)))
(let ((.def_645 (and .def_59 .def_644)))
(let ((.def_648 (and .def_645 .def_647)))
(let ((.def_651 (and .def_648 .def_650)))
(let ((.def_50 (= .def_48 b1487)))
(let ((.def_51 (not .def_50)))
(let ((.def_652 (and .def_51 .def_651)))
(let ((.def_655 (and .def_652 .def_654)))
(let ((.def_658 (and .def_655 .def_657)))
(let ((.def_42 (= .def_40 b1492)))
(let ((.def_43 (not .def_42)))
(let ((.def_659 (and .def_43 .def_658)))
(let ((.def_662 (and .def_659 .def_661)))
(let ((.def_665 (and .def_662 .def_664)))
(let ((.def_34 (= .def_32 b1497)))
(let ((.def_35 (not .def_34)))
(let ((.def_666 (and .def_35 .def_665)))
(let ((.def_669 (and .def_666 .def_668)))
(let ((.def_672 (and .def_669 .def_671)))
(let ((.def_26 (= .def_24 b1502)))
(let ((.def_27 (not .def_26)))
(let ((.def_673 (and .def_27 .def_672)))
(let ((.def_676 (and .def_673 .def_675)))
(let ((.def_679 (and .def_676 .def_678)))
(let ((.def_683 (and .def_679 .def_682)))
(let ((.def_18 (= .def_16 b1507)))
(let ((.def_19 (not .def_18)))
(let ((.def_684 (and .def_19 .def_683)))
.def_684))))))))))))))))))))))))))))))))))))))))))))))))))))))))))))))))))))))))))))))))))))))))))))))))))))))))))))))))))))))))))))))))))))))))))))))))))))))))))))))))))))))))))))))))))))))))))))))))))))))))))))))))))))))))))))))))))))))))))))))))))))))))))))))))))))))))))))))))))))))))))))))))))))))))))))))))))))))))))))))))))))))))))))))))))))))))))))))))))))))))))))))))))))))))))))))))))))))))))))))))))))))))))))))))))))))))))))))))))))))))))))))))))))))))))))))))))))))))))))))))))))))))))))))))))))))))))))))))))))))))))))))))))))))))))))))))))))))))))))))))))))))))))))))))))))))))))))))))))))
(check-sat)
